% demand
num_movements = 28;
loading_factor = [1800, 1750, 1600, 1350, 1550, 1550, 1100, 1950, 1700, 1550, 1600, 950, 1650, 1900, 1650, 1050, 850, 1000, 1500, 1900, 1750, 1600, 1300, 1950, 1500, 1900, 1750, 1650];
pickup_time = [0, 0, 0, 0, 0, 0, 0, 2, 2, 2, 3, 3, 4, 4, 4, 4, 5, 5, 5, 5, 5, 5, 5, 6, 6, 6, 9, 10];
delivery_time = [1, 1, 1, 3, 3, 3, 3, 3, 3, 3, 4, 4, 5, 5, 5, 6, 11, 10, 8, 6, 6, 9, 6, 11, 11, 11, 11, 11];

% transporter definition
total_capacity = 11000;
num_decks = 4;
capacity = [3000, 3000, 1000, 4000];

% ways out of decks
num_ways_out = 2;
paths_out = array3d(decks, ways_out, decks, [
% ways out of deck d1
2, 4, 0, 0, 3, 4, 0, 0, 

% ways out of deck d2
4, 0, 0, 0, 0, 0, 0, 0,	

% ways out of deck d3
4, 0, 0, 0, 0, 0, 0, 0,	

% ways out of deck d4
0, 0, 0, 0,	0, 0, 0, 0,	

]);

